
******************************************************************************
This program contains Ipopt, a library for large-scale nonlinear optimization.
 Ipopt is released as open source code under the Eclipse Public License (EPL).
         For more information visit http://projects.coin-or.org/Ipopt

This version of Ipopt was compiled from source code available at
    https://github.com/IDAES/Ipopt as part of the Institute for the Design of
    Advanced Energy Systems Process Systems Engineering Framework (IDAES PSE
    Framework) Copyright (c) 2018-2019. See https://github.com/IDAES/idaes-pse.

This version of Ipopt was compiled using HSL, a collection of Fortran codes
    for large-scale scientific computation.  All technical papers, sales and
    publicity material resulting from use of the HSL codes within IPOPT must
    contain the following acknowledgement:
        HSL, a collection of Fortran codes for large-scale scientific
        computation. See http://www.hsl.rl.ac.uk.
******************************************************************************

This is Ipopt version 3.13.2, running with linear solver ma27.

Number of nonzeros in equality constraint Jacobian...:     1020
Number of nonzeros in inequality constraint Jacobian.:        0
Number of nonzeros in Lagrangian Hessian.............:     1161

Total number of variables............................:      405
                     variables with only lower bounds:      108
                variables with lower and upper bounds:      243
                     variables with only upper bounds:        0
Total number of equality constraints.................:      402
Total number of inequality constraints...............:        0
        inequality constraints with only lower bounds:        0
   inequality constraints with lower and upper bounds:        0
        inequality constraints with only upper bounds:        0

iter    objective    inf_pr   inf_du lg(mu)  ||d||  lg(rg) alpha_du alpha_pr  ls
   0  0.0000000e+00 4.41e+00 6.55e-15  -1.0 0.00e+00    -  0.00e+00 0.00e+00   0
   1  8.8542094e-02 4.39e+00 1.94e+04  -1.0 5.74e+06    -  3.62e-02 4.86e-03h  1
   2  9.3535845e-02 4.39e+00 1.94e+04  -1.0 3.71e+06    -  2.91e-02 1.77e-04h  1
   3  2.6636919e+00 4.29e+00 1.62e+05  -1.0 4.08e+06    -  2.67e-02 2.39e-02h  1
   4  2.9655712e+00 4.28e+00 1.62e+05  -1.0 7.15e+06    -  2.87e-02 1.29e-03h  1
   5  2.9867804e+00 4.28e+00 1.63e+05  -1.0 1.40e+07    -  1.87e-04 6.85e-05h  1
   6  3.2128765e+00 4.28e+00 1.67e+05  -1.0 1.89e+07    -  1.97e-04 6.15e-04h  1
   7  3.7440343e+00 4.27e+00 1.71e+05  -1.0 1.95e+07    -  7.81e-04 1.18e-03h  1
   8  3.0420032e+01 4.19e+00 3.63e+06  -1.0 2.01e+07    -  1.96e-03 1.97e-02h  2
   9  3.3822599e+01 4.19e+00 3.67e+06  -1.0 2.77e+07    -  4.85e-03 7.66e-04h  1
iter    objective    inf_pr   inf_du lg(mu)  ||d||  lg(rg) alpha_du alpha_pr  ls
  10  7.3264226e+01 4.16e+00 8.02e+06  -1.0 2.87e+07    -  3.99e-05 6.34e-03h  2
  11  7.4094271e+01 4.16e+00 8.11e+06  -1.0 5.14e+07  -4.0 3.51e-07 8.36e-05h  1
  12  1.0699247e+02 4.15e+00 4.99e+07  -1.0 5.35e+07  -4.5 7.03e-05 2.90e-03h  2
  13  1.0782851e+02 4.15e+00 5.00e+07  -1.0 6.64e+07  -4.1 2.13e-03 6.14e-05h  2
  14  1.0800957e+02 4.15e+00 5.00e+07  -1.0 8.69e+07  -4.5 3.04e-03 1.45e-05h  8
  15r 1.0800957e+02 4.15e+00 9.99e+02   0.6 0.00e+00  -4.1 0.00e+00 3.18e-07R 14
  16r 1.0800961e+02 1.17e+00 9.97e+02   0.6 3.91e+03    -  7.59e-03 1.05e-03f  1
  17r 1.0800961e+02 1.17e+00 9.99e+02   0.1 0.00e+00    -  0.00e+00 1.42e-07R  2
  18r 1.0800964e+02 1.16e+00 9.98e+02   0.1 1.19e+03    -  5.98e-03 1.31e-03f  1
  19r 1.0800979e+02 1.11e+00 9.90e+02   0.1 1.01e+03    -  1.90e-02 7.43e-03f  1
iter    objective    inf_pr   inf_du lg(mu)  ||d||  lg(rg) alpha_du alpha_pr  ls
  20r 1.0801063e+02 8.30e-01 9.61e+02   0.1 6.93e+02    -  2.13e-02 2.97e-02f  1
  21r 1.0801063e+02 8.30e-01 9.99e+02  -0.1 0.00e+00    -  0.00e+00 3.89e-07R  3
  22r 1.0801072e+02 7.61e-01 9.95e+02  -0.1 1.60e+03    -  3.14e-02 4.44e-03f  1
  23r 1.0801089e+02 7.05e-01 9.88e+02  -0.1 3.14e+02    -  5.02e-03 6.65e-03f  1
  24  1.0761949e+02 7.05e-01 8.28e+05  -1.0 7.84e+08    -  1.54e-05 3.15e-04f  3
  25  1.0770097e+02 7.04e-01 3.13e+06  -1.0 1.65e+08  -4.6 3.02e-05 1.55e-04f  5
  26  1.0610486e+02 6.71e-01 6.98e+07  -1.0 1.85e+08  -4.2 1.60e-04 1.04e-03f  2
  27  1.0800450e+02 7.97e-01 3.18e+07  -1.0 2.29e+07  -4.6 1.03e-02 4.22e-03h  2
  28  1.1114921e+02 8.20e-01 3.11e+07  -1.0 1.15e+07  -4.2 2.47e-02 3.12e-03h  3
  29  1.1527644e+02 8.43e-01 3.06e+07  -1.0 1.11e+07  -4.7 3.58e-02 3.45e-03h  3
iter    objective    inf_pr   inf_du lg(mu)  ||d||  lg(rg) alpha_du alpha_pr  ls
  30  1.1936584e+02 8.66e-01 3.03e+07  -1.0 7.77e+06  -4.3 6.03e-02 3.82e-03h  3
  31  1.2137725e+02 8.71e-01 3.02e+07  -1.0 6.89e+06  -3.8 8.48e-02 2.08e-03h  4
  32  1.2339243e+02 8.75e-01 3.02e+07  -1.0 7.68e+06  -4.3 7.18e-02 2.25e-03h  4
  33  1.2531021e+02 8.79e-01 3.02e+07  -1.0 7.28e+06  -3.9 7.94e-02 2.43e-03h  4
  34  1.2500637e+02 8.79e-01 3.02e+07  -1.0 1.15e+08    -  4.81e-03 1.36e-03w  1
  35  1.2511920e+02 8.79e-01 3.02e+07  -1.0 7.99e+06  -3.5 9.04e-02 1.46e-04w  1
  36  1.5848874e+02 9.05e-01 1.13e+10  -1.0 1.81e+09    -  2.66e-06 4.37e-04w  1
  37  1.2492337e+02 8.79e-01 3.02e+07  -1.0 3.44e+07  -3.9 4.81e-03 3.40e-04f  2
  38  1.2540775e+02 8.78e-01 3.02e+07  -1.0 3.23e+07  -4.4 2.63e-02 7.25e-04h  5
  39  1.2627058e+02 8.78e-01 3.03e+07  -1.0 1.33e+07  -4.0 3.90e-02 1.93e-03h  3
iter    objective    inf_pr   inf_du lg(mu)  ||d||  lg(rg) alpha_du alpha_pr  ls
  40  1.2634831e+02 8.77e-01 3.03e+07  -1.0 1.74e+07  -4.5 2.20e-02 9.20e-04h  3
  41  1.2615338e+02 8.77e-01 3.03e+07  -1.0 1.76e+08  -4.9 2.82e-03 9.86e-05f  3
  42  1.2623294e+02 8.77e-01 3.03e+07  -1.0 6.47e+06  -2.7 1.04e-01 8.93e-05h  9
  43  1.2708583e+02 8.76e-01 3.02e+07  -1.0 4.68e+06  -3.2 1.54e-01 1.13e-03h  4
  44  1.2738099e+02 8.75e-01 3.02e+07  -1.0 2.08e+07    -  2.75e-02 1.09e-03h  3
  45  1.2761137e+02 8.74e-01 3.02e+07  -1.0 1.71e+07    -  3.90e-02 1.03e-03h  4
  46  1.2802188e+02 8.72e-01 9.12e+07  -1.0 2.51e+07    -  3.09e-02 2.02e-03h  4
  47  1.4433849e+02 1.09e+01 5.32e+09  -1.0 1.18e+07    -  9.34e-02 1.96e-02w  1
  48  1.6064552e+02 1.04e+01 2.30e+10  -1.0 7.79e+06    -  3.25e-02 4.27e-02w  1
  49  1.6226794e+02 2.21e+01 2.29e+10  -1.0 3.86e+07    -  8.00e-03 6.81e-04w  1
iter    objective    inf_pr   inf_du lg(mu)  ||d||  lg(rg) alpha_du alpha_pr  ls
  50  1.2872752e+02 8.71e-01 1.02e+08  -1.0 1.46e+07    -  9.34e-02 1.22e-03h  4
  51  1.3045874e+02 8.69e-01 3.78e+08  -1.0 6.12e+06    -  1.94e-01 2.59e-03h  4
  52  1.3113810e+02 8.68e-01 6.01e+08  -1.0 8.40e+06    -  1.50e-01 1.24e-03h  5
  53  1.3186019e+02 8.67e-01 8.45e+08  -1.0 6.41e+06    -  2.85e-01 1.28e-03h  5
  54  1.3345621e+02 8.65e-01 8.46e+08  -1.0 4.16e+06    -  2.66e-01 2.66e-03h  4
  55  1.3416197e+02 8.63e-01 8.46e+08  -1.0 4.67e+06    -  6.61e-01 1.33e-03h  5
  56  1.3432142e+02 8.63e-01 8.46e+08  -1.0 5.33e+06    -  2.05e-01 3.32e-04h  7
  57  1.3439837e+02 8.63e-01 8.46e+08  -1.0 5.75e+06    -  3.42e-01 1.68e-04h  8
  58  1.3439726e+02 8.63e-01 4.18e+08  -1.0 2.39e+07    -  2.80e-02 5.60e-05h  9
  59  1.3432305e+02 8.63e-01 2.96e+08  -1.0 2.39e+08  -2.8 1.95e-03 1.62e-05f  8
iter    objective    inf_pr   inf_du lg(mu)  ||d||  lg(rg) alpha_du alpha_pr  ls
  60  1.4719067e+02 1.09e+01 1.42e+12  -1.0 5.93e+06  -0.5 5.36e-03 2.15e-02w  1
MA27BD returned iflag=-4 and requires more memory.
 Increase liw from 16265 to 32530 and la from 18975 to 38420 and factorize again.
  61  1.5434239e+02 1.06e+01 2.14e+12  -1.0 1.34e+07  -1.0 2.13e-02 2.65e-02w  1
  62  1.6078207e+02 1.11e+02 1.55e+14  -1.0 4.35e+07  -0.6 4.52e-03 2.30e-03w  1
  63  1.3433365e+02 8.63e-01 2.96e+08  -1.0 3.43e+07    -  5.36e-03 2.10e-05h 10
  64r 1.3433365e+02 8.63e-01 1.00e+03  -0.1 0.00e+00  -1.1 0.00e+00 4.29e-07R 16
  65r 1.3433392e+02 8.57e-01 9.95e+02  -0.1 7.20e+03    -  7.88e-03 3.30e-03f  1
  66r 1.3433434e+02 8.55e-01 9.92e+02  -0.1 2.85e+03    -  3.86e-02 3.25e-03f  1
  67r 1.3433698e+02 8.25e-01 9.58e+02  -0.1 1.77e+03    -  1.21e-02 3.47e-02f  1
  68r 1.3433612e+02 8.07e-01 9.37e+02  -0.1 1.04e+03    -  2.01e-02 2.21e-02f  1
  69r 1.3433575e+02 7.79e-01 9.05e+02  -0.1 2.08e+03    -  6.97e-02 3.39e-02f  1
iter    objective    inf_pr   inf_du lg(mu)  ||d||  lg(rg) alpha_du alpha_pr  ls
  70r 1.3433563e+02 7.68e-01 8.94e+02  -0.1 1.40e+03    -  1.06e-03 1.46e-02f  1
  71  1.3439152e+02 7.68e-01 4.42e+03  -1.0 5.42e+06    -  1.20e-02 6.24e-04h  6
  72  1.3439141e+02 7.67e-01 1.10e+04  -1.0 5.11e+06    -  2.09e-02 5.53e-04h  6
  73  1.3431948e+02 7.67e-01 2.12e+04  -1.0 4.45e+06    -  1.54e-02 4.26e-04f  6
  74  1.3424130e+02 7.67e-01 3.31e+04  -1.0 5.67e+06    -  1.54e-02 2.71e-04f  7
  75  1.3420136e+02 9.91e-01 3.51e+04  -1.0 7.16e+06    -  2.11e-02 1.07e-04f  9
  76  1.3389327e+02 1.43e+00 3.85e+04  -1.0 6.00e+06    -  3.81e-02 1.87e-03f  3
  77  1.2709601e+02 6.82e+01 1.03e+06  -1.0 1.13e+07    -  1.75e-02 1.21e-02f  1
  78  1.2708454e+02 6.82e+01 1.03e+06  -1.0 9.73e+06    -  4.46e-02 2.67e-04h  1
  79  1.2128739e+02 6.80e+01 1.03e+06  -1.0 1.38e+07    -  1.57e-03 1.73e-03F  1
iter    objective    inf_pr   inf_du lg(mu)  ||d||  lg(rg) alpha_du alpha_pr  ls
  80  1.2895592e+02 6.73e+01 3.89e+06  -1.0 1.40e+07    -  3.78e-04 1.09e-02h  1
  81  1.2991859e+02 6.72e+01 3.84e+06  -1.0 7.46e+06    -  8.39e-03 2.14e-03h  4
  82  1.2992603e+02 6.72e+01 7.64e+08  -1.0 5.92e+06  -1.5 1.01e-01 1.19e-05h  1
  83  1.3000501e+02 6.71e+01 1.05e+09  -1.0 5.92e+06  -2.0 1.65e-01 1.26e-04h  8
  84  1.3004060e+02 6.71e+01 1.05e+09  -1.0 3.75e+09    -  1.54e-04 1.79e-06h  8
  85  1.3278346e+02 6.66e+01 1.04e+09  -1.0 1.01e+07    -  1.19e-02 7.98e-03h  2
  86  1.3649291e+02 6.62e+01 9.70e+08  -1.0 7.74e+06    -  6.62e-02 5.53e-03h  2
  87  1.3672348e+02 6.62e+01 9.55e+08  -1.0 3.66e+06    -  1.64e-02 4.70e-04h  5
  88  1.3676447e+02 6.62e+01 9.00e+08  -1.0 9.96e+06    -  5.29e-02 1.15e-04h  7
  89  1.3681207e+02 6.62e+01 8.84e+08  -1.0 3.07e+06  -2.5 1.94e-02 1.13e-04h  7
iter    objective    inf_pr   inf_du lg(mu)  ||d||  lg(rg) alpha_du alpha_pr  ls
  90  1.3687688e+02 6.61e+01 8.68e+08  -1.0 4.01e+07    -  1.39e-02 9.10e-04h  4
  91  1.3796448e+02 6.60e+01 8.17e+08  -1.0 1.39e+07    -  5.98e-02 1.69e-03h  3
  92  1.4197517e+02 6.56e+01 7.72e+08  -1.0 1.56e+07    -  5.51e-02 5.75e-03h  2
  93  1.4253434e+02 6.52e+01 9.66e+08  -1.0 2.51e+07    -  2.38e-02 6.48e-03w  1
  94  1.4184414e+02 6.52e+01 8.18e+08  -1.0 6.09e+08    -  7.94e-04 8.10e-05w  1
  95  1.4185944e+02 6.52e+01 2.54e+17  -1.0 5.87e+08    -  1.74e-03 8.91e-07w  1
  96  1.4194590e+02 6.54e+01 7.56e+08  -1.0 1.35e-02  15.4 2.38e-02 3.24e-03h  1
  97  1.4284391e+02 6.54e+01 7.29e+08  -1.0 1.54e+07    -  5.42e-02 8.87e-04h  3
  98  1.4346741e+02 6.53e+01 7.09e+08  -1.0 1.34e+07    -  6.23e-02 6.92e-04h  3
  99  1.4379467e+02 6.53e+01 6.84e+08  -1.0 5.77e+06    -  1.61e-01 5.37e-04h  3
iter    objective    inf_pr   inf_du lg(mu)  ||d||  lg(rg) alpha_du alpha_pr  ls
 100  1.4378843e+02 6.53e+01 5.79e+08  -1.0 7.80e+06    -  8.48e-02 2.08e-04h  4
 101  1.4096575e+02 6.52e+01 3.72e+09  -1.0 1.13e+08    -  4.20e-03 7.47e-04f  2
 102  1.4096575e+02 6.52e+01 1.16e+10  -1.0 1.52e-05  14.9 9.70e-01 1.00e+00h  1
 103  1.4096575e+02 6.52e+01 2.32e+10  -1.0 2.73e-04  13.9 4.03e-01 1.00e+00h  1
 104  1.4115507e+02 6.52e+01 2.32e+10  -1.0 5.64e+08    -  8.58e-07 2.22e-05f  6
 105  1.4115507e+02 6.52e+01 3.48e+10  -1.0 1.23e-03  13.5 9.90e-01 1.00e+00h  1
 106  1.4132120e+02 6.52e+01 3.48e+10  -1.0 4.42e+08    -  1.79e-06 2.24e-05f  6
 107  1.4132120e+02 6.52e+01 4.64e+10  -1.0 4.92e-03  13.0 9.90e-01 1.00e+00h  1
 108  1.4184771e+02 6.52e+01 4.64e+10  -1.0 1.07e+09    -  3.35e-08 2.80e-05f  5
 109  1.4184771e+02 6.52e+01 5.80e+10  -1.0 2.30e-03  13.4 9.90e-01 1.00e+00h  1
iter    objective    inf_pr   inf_du lg(mu)  ||d||  lg(rg) alpha_du alpha_pr  ls
 110  1.4184771e+02 6.52e+01 6.96e+10  -1.0 8.29e-03  12.9 9.96e-01 1.00e+00h  1
 111  1.4184771e+02 6.52e+01 8.12e+10  -1.0 3.63e-03  13.3 1.00e+00 1.00e+00h  1
 112  1.4184771e+02 6.52e+01 9.28e+10  -1.0 1.24e-02  12.9 1.00e+00 1.00e+00h  1
 113  1.4185642e+02 6.52e+01 3.90e+17  -1.0 1.47e+06  12.4 1.41e-02 4.67e-05h  5
 114  1.4186504e+02 6.51e+01 5.13e+17  -1.0 1.46e+06  11.9 7.16e-02 4.41e-05h  5
 115  1.4187316e+02 6.51e+01 5.50e+17  -1.0 1.46e+06  11.4 2.32e-02 4.16e-05h  5
 116  1.4188080e+02 6.51e+01 5.61e+17  -1.0 1.46e+06  11.0 1.96e-01 3.93e-05h  5
 117  1.4188798e+02 6.51e+01 5.64e+17  -1.0 1.47e+06  10.5 1.22e-02 3.71e-05h  5
 118  1.4189467e+02 6.51e+01 5.65e+17  -1.0 1.49e+06  10.0 1.38e-01 3.50e-05h  5
 119  1.4189768e+02 6.51e+01 5.65e+17  -1.0 1.55e+06   9.5 1.15e-02 1.65e-05h  6
iter    objective    inf_pr   inf_du lg(mu)  ||d||  lg(rg) alpha_du alpha_pr  ls
 120  1.4189938e+02 6.51e+01 5.65e+17  -1.0 3.55e+06   9.1 1.61e-01 1.84e-05h  5
 121r 1.4189938e+02 6.51e+01 1.00e+03   1.8 0.00e+00   9.5 0.00e+00 4.73e-07R 11
 122r 1.4189993e+02 4.37e+01 9.90e+02   1.8 7.33e+03    -  1.37e-02 8.80e-03f  1
 123  1.4194570e+02 4.37e+01 4.09e+02  -1.0 4.75e+06    -  8.25e-02 2.00e-04h  1
 124  1.4200118e+02 4.37e+01 1.00e+05  -1.0 5.70e+06    -  7.91e-02 3.21e-04h  1
 125  1.7637472e+02 4.05e+01 8.35e+06  -1.0 6.61e+06    -  6.78e-02 7.40e-02h  1
 126  1.7729219e+02 4.01e+01 8.25e+06  -1.0 3.88e+06    -  9.82e-02 1.03e-02h  5
 127  2.1903250e+02 3.51e+01 4.49e+07  -1.0 5.07e+06    -  9.12e-02 1.25e-01h  1
 128  2.1912681e+02 3.50e+01 4.49e+07  -1.0 2.79e+06    -  6.97e-03 1.00e-03h  4
 129  2.1972557e+02 3.49e+01 4.48e+07  -1.0 2.00e+06    -  6.13e-02 2.68e-03h  1
iter    objective    inf_pr   inf_du lg(mu)  ||d||  lg(rg) alpha_du alpha_pr  ls
 130  2.1973169e+02 3.49e+01 4.48e+07  -1.0 2.05e+06    -  1.09e-03 2.69e-05h  1
 131r 2.1973169e+02 3.49e+01 9.99e+02   1.5 0.00e+00    -  0.00e+00 1.34e-07R  2
 132r 2.1973170e+02 1.82e+00 9.77e+02   1.5 1.31e+04    -  1.77e-01 2.64e-03f  1
 133r 2.1973170e+02 1.82e+00 9.99e+02   0.3 0.00e+00    -  0.00e+00 1.49e-07R  2
 134r 2.1973177e+02 6.02e-01 9.98e+02   0.3 1.71e+03    -  9.74e-03 1.05e-03f  1
 135r 2.1973177e+02 6.02e-01 9.99e+02  -0.2 0.00e+00    -  0.00e+00 1.52e-07R  2
 136r 2.1973195e+02 3.76e-01 9.96e+02  -0.2 2.33e+03    -  7.24e-03 1.73e-03f  1
 137r 2.1973195e+02 3.76e-01 9.99e+02  -0.4 0.00e+00    -  0.00e+00 1.55e-07R  2
 138r 2.1973225e+02 3.21e-01 9.97e+02  -0.4 6.20e+03    -  7.28e-03 1.54e-03f  1
 139r 2.1973225e+02 3.21e-01 9.99e+02  -0.5 0.00e+00    -  0.00e+00 1.60e-07R  2
iter    objective    inf_pr   inf_du lg(mu)  ||d||  lg(rg) alpha_du alpha_pr  ls
 140r 2.1973295e+02 6.80e-01 9.95e+02  -0.5 2.26e+03    -  6.67e-03 3.55e-03f  1
 141r 2.1973455e+02 6.79e-01 9.89e+02  -0.5 2.55e+03    -  1.16e-02 5.94e-03f  1
 142r 2.1973826e+02 3.13e-01 9.73e+02  -0.5 2.50e+03    -  1.41e-02 1.66e-02f  1
 143r 2.1973848e+02 3.13e-01 9.69e+02  -0.5 1.99e+03    -  1.78e-02 4.15e-03f  1
 144r 2.1973988e+02 4.63e+00 1.18e+03  -0.5 1.80e+03    -  3.89e-03 1.79e-02f  1
 145r 2.1974030e+02 4.63e+00 9.50e+02  -0.5 3.13e+03    -  4.12e-03 1.52e-03f  1
 146r 2.1974026e+02 4.54e+00 9.83e+02  -0.5 1.69e+03    -  3.71e-03 1.82e-02f  1
 147r 2.1974020e+02 4.54e+00 9.37e+02  -0.5 1.66e+03    -  1.15e-02 1.47e-03f  1
 148r 2.1974023e+02 4.43e+00 9.94e+02  -0.5 1.65e+03    -  2.06e-03 2.34e-02f  1
 149r 2.1974032e+02 4.40e+00 9.41e+02  -0.5 1.59e+03    -  6.18e-02 5.75e-03f  1
iter    objective    inf_pr   inf_du lg(mu)  ||d||  lg(rg) alpha_du alpha_pr  ls
 150r 2.1974032e+02 3.97e+00 8.65e+02  -0.5 4.17e+00   0.0 7.38e-02 9.81e-02f  1
 151r 2.1974032e+02 3.78e+00 8.22e+02  -0.5 1.27e+01  -0.5 5.52e-02 4.80e-02f  1
 152r 2.1974032e+02 3.68e+00 8.66e+02  -0.5 1.65e+02  -1.0 2.20e-03 2.76e-02f  1
 153r 2.1974032e+02 3.66e+00 8.45e+02  -0.5 1.43e+01  -0.5 2.03e-01 3.97e-03f  1
 154r 2.1974032e+02 3.61e+00 8.54e+02  -0.5 1.74e+02  -1.0 2.49e-02 1.34e-02f  1
 155r 2.1974032e+02 3.57e+00 8.41e+02  -0.5 2.34e+02  -1.5 2.70e-02 1.20e-02f  1
 156r 2.1973979e+02 3.51e+00 8.31e+02  -0.5 1.76e+03    -  2.42e-02 1.73e-02f  1
 157r 2.1973960e+02 3.48e+00 8.48e+02  -0.5 1.44e+03    -  4.30e-02 7.54e-03f  1
 158r 2.1973967e+02 3.43e+00 8.32e+02  -0.5 6.89e+02    -  3.91e-02 1.44e-02f  1
 159r 2.1973967e+02 3.40e+00 8.30e+02  -0.5 5.86e+01  -2.0 2.21e-01 1.02e-02f  1
iter    objective    inf_pr   inf_du lg(mu)  ||d||  lg(rg) alpha_du alpha_pr  ls
 160r 2.1974038e+02 2.79e+00 6.82e+02  -0.5 7.14e+02    -  1.88e-01 1.77e-01f  1
 161r 2.1974038e+02 2.75e+00 6.72e+02  -0.5 1.52e+01   0.3 7.47e-03 1.48e-02F  1
 162r 2.1974038e+02 2.33e+00 5.71e+02  -0.5 2.50e+00   0.7 3.27e-02 1.54e-01h  2
 163r 2.1974038e+02 2.32e+00 6.15e+02  -0.5 5.69e+02    -  1.20e-01 2.34e-03H  1
 164r 2.1973861e+02 2.20e+00 5.86e+02  -0.5 8.89e+02    -  6.99e-03 5.46e-02f  1
 165r 2.1973728e+02 2.12e+00 5.60e+02  -0.5 4.87e+02    -  1.29e-01 3.53e-02h  1
 166r 2.1973722e+02 2.12e+00 6.31e+02  -0.5 7.74e+02    -  1.64e-01 1.23e-03H  1
 167r 2.1973616e+02 2.06e+00 6.66e+02  -0.5 6.74e+02    -  2.46e-02 2.60e-02h  1
 168r 2.1972893e+02 1.69e+00 7.39e+02  -0.5 6.97e+02    -  9.95e-03 1.82e-01h  1
 169r 2.1972889e+02 1.68e+00 7.51e+02  -0.5 5.77e+02    -  4.00e-01 1.31e-03H  1
iter    objective    inf_pr   inf_du lg(mu)  ||d||  lg(rg) alpha_du alpha_pr  ls
 170r 2.1972885e+02 1.68e+00 2.57e+03  -0.5 5.62e+02    -  3.89e-02 1.29e-03H  1
 171r 2.1972882e+02 1.68e+00 1.18e+03  -0.5 5.56e+02    -  5.10e-02 1.04e-03h  1
 172r 2.1972415e+02 1.42e+00 2.34e+03  -0.5 5.47e+02    -  1.72e-03 1.57e-01h  2
 173r 2.1972328e+02 1.37e+00 2.17e+03  -0.5 4.41e+02    -  2.13e-01 3.50e-02h  4
 174r 2.1972328e+02 1.36e+00 3.34e+03  -0.5 4.06e+02    -  5.89e-02 9.82e-04H  1
 175r 2.1972328e+02 8.16e+00 2.25e+05  -0.5 1.90e+00   0.2 5.34e-04 1.66e-03H  1
 176r 2.1972328e+02 8.03e+00 1.73e+05  -0.5 3.13e+02   1.6 6.08e-03 1.81e-06h  4
 177r 2.1972328e+02 8.17e+00 2.33e+05  -0.5 3.75e+01   2.0 2.05e-04 6.79e-04f  6
 178r 2.1972328e+02 8.05e+00 1.84e+05  -0.5 6.18e+02   2.4 4.64e-08 1.49e-05h  6
 179r 2.1972328e+02 8.05e+00 1.84e+05  -0.5 1.37e+00   4.6 0.00e+00 3.08e-07R 16
iter    objective    inf_pr   inf_du lg(mu)  ||d||  lg(rg) alpha_du alpha_pr  ls
 180r 2.1972328e+02 8.18e+00 2.65e+05  -0.5 7.78e-01   4.2 6.70e-02 8.81e-02f  1
 181r 2.1972328e+02 7.86e+00 1.20e+05  -0.5 1.92e-01   4.6 7.84e-02 6.77e-01f  1
 182r 2.1972328e+02 7.68e+00 2.05e+04  -0.5 1.90e-02   5.9 2.40e-01 1.42e-01H  1
 183r 2.1972328e+02 7.75e+00 2.57e+04  -0.5 5.29e-04   7.2 5.17e-01 1.00e+00f  1
 184r 2.1972328e+02 7.75e+00 2.57e+04  -0.5 8.18e-03   6.8 0.00e+00 2.70e-07R 17
 185r 2.1972328e+02 7.75e+00 9.42e+02  -0.5 4.88e-04   6.3 9.90e-01 1.00e+00f  1
 186r 2.1972328e+02 7.76e+00 9.50e+02  -0.5 1.47e-03   5.8 9.92e-01 1.00e+00f  1
 187r 2.1972328e+02 7.78e+00 9.80e+02  -0.5 4.37e-03   5.3 1.00e+00 8.65e-01f  1
 188r 2.1972328e+02 7.90e+00 2.03e+03  -0.5 1.72e-02   4.9 1.00e+00 2.47e-01f  1
 189r 2.1972328e+02 7.81e+00 1.23e+03  -0.5 6.91e-02   4.4 9.28e-01 1.58e-01f  1
iter    objective    inf_pr   inf_du lg(mu)  ||d||  lg(rg) alpha_du alpha_pr  ls
 190r 2.1972328e+02 7.91e+00 2.73e+03  -0.5 9.51e-02   3.9 1.00e+00 2.38e-01f  1
 191r 2.1972328e+02 7.72e+00 1.91e+03  -0.5 2.39e-01   3.4 1.00e+00 1.16e-01f  1
 192r 2.1972328e+02 7.88e+00 3.22e+03  -0.5 6.71e-01   2.9 1.00e+00 1.21e-01f  1
 193r 2.1972328e+02 7.75e+00 8.78e+02  -0.5 7.05e+00   2.5 4.19e-02 8.36e-03f  1
 194r 2.1972328e+02 7.69e+00 1.90e+03  -0.5 7.07e-01   2.9 1.00e+00 5.94e-01f  1
 195r 2.1972329e+02 7.92e+00 6.18e+03  -0.5 2.48e-01   3.3 1.00e+00 2.09e-01f  1
 196r 2.1972328e+02 7.73e+00 3.16e+03  -0.5 5.27e-01   2.8 6.40e-01 1.00e+00f  1
 197r 2.1972328e+02 7.76e+00 7.70e+02  -0.5 1.77e-01   3.3 1.00e+00 5.42e-01f  1
 198r 2.1972328e+02 7.86e+00 3.11e+03  -0.5 5.29e-01   2.8 9.80e-01 5.94e-01f  1
 199r 2.1972328e+02 7.81e+00 1.43e+03  -0.5 1.53e-01   3.2 1.00e+00 2.06e-02f  1
iter    objective    inf_pr   inf_du lg(mu)  ||d||  lg(rg) alpha_du alpha_pr  ls
 200r 2.1972327e+02 7.73e+00 4.26e+02  -0.5 1.35e-01   2.7 6.42e-01 1.00e+00h  1
 201r 2.1972326e+02 7.67e+00 2.04e+03  -0.5 6.65e-02   3.2 1.00e+00 9.67e-01f  1
 202r 2.1972327e+02 7.71e+00 4.53e+02  -0.5 7.11e-01   2.7 5.12e-01 5.03e-02f  1
 203r 2.1972327e+02 7.76e+00 1.92e+03  -0.5 3.66e-01   2.2 1.00e+00 1.00e+00f  1
 204r 2.1972325e+02 7.64e+00 6.49e+02  -0.5 1.12e+00   1.7 1.00e+00 1.00e+00f  1
 205r 2.1972325e+02 7.44e+00 5.22e+02  -0.5 3.45e+00   1.3 1.00e+00 1.00e+00f  1
 206r 2.1972322e+02 6.63e+00 9.12e+02  -0.5 1.16e+01   0.8 9.12e-01 1.00e+00f  1
 207r 2.1972322e+02 6.26e+00 5.58e+03  -0.5 1.46e+00   2.1 1.75e-03 2.17e-01f  1
 208r 2.1972322e+02 6.22e+00 1.23e+03  -0.5 1.47e-01   3.4 1.00e+00 1.00e+00f  1
 209r 2.1972322e+02 5.60e+00 5.08e+03  -0.5 4.85e-01   3.0 3.76e-01 1.00e+00f  1
iter    objective    inf_pr   inf_du lg(mu)  ||d||  lg(rg) alpha_du alpha_pr  ls
 210r 2.1972322e+02 5.43e+00 1.76e+03  -0.5 2.76e-01   3.4 7.64e-01 8.97e-01f  1
 211r 2.1972322e+02 5.41e+00 1.75e+03  -0.5 1.08e+00   2.9 2.48e-01 3.56e-02F  1
 212r 2.1972322e+02 5.39e+00 1.68e+03  -0.5 1.02e+01   2.4 8.73e-03 4.03e-03f  1
 213r 2.1972322e+02 5.41e+00 1.60e+03  -0.5 1.30e+00   2.9 1.53e-02 6.36e-04F  1
 214r 2.1972322e+02 5.22e+00 1.77e+03  -0.5 1.77e+01   2.4 2.79e-04 8.89e-03f  1
 215r 2.1972322e+02 5.21e+00 1.71e+03  -0.5 1.57e+00   2.8 3.16e-01 1.78e-02f  1
 216r 2.1972322e+02 5.17e+00 1.67e+03  -0.5 4.35e+01   2.3 6.83e-03 2.99e-03F  1
 217r 2.1972322e+02 5.16e+00 1.67e+03  -0.5 1.95e+00   2.8 2.49e-02 2.52e-03f  1
 218r 2.1972322e+02 5.05e+00 1.55e+03  -0.5 5.63e-01   3.2 1.10e-03 1.42e-01f  3
 219r 2.1972322e+02 5.05e+00 1.55e+03  -0.5 2.39e+00   2.7 5.62e-01 1.95e-03f 10
iter    objective    inf_pr   inf_du lg(mu)  ||d||  lg(rg) alpha_du alpha_pr  ls
 220r 2.1972322e+02 5.05e+00 1.55e+03  -0.5 6.67e-01   3.1 1.70e-01 6.10e-05f 15
 221r 2.1972322e+02 5.05e+00 1.55e+03  -0.5 2.88e+00   2.7 1.40e-01 1.01e-04f 14
 222r 2.1972322e+02 5.02e+00 1.59e+03  -0.5 7.73e-01   3.1 1.00e+00 9.77e-04f 11
 223r 2.1972322e+02 2.52e+00 1.00e+04  -0.5 3.44e+00   2.6 1.26e-01 7.03e-01f  1
 224r 2.1972322e+02 2.22e+00 8.39e+03  -0.5 8.47e-01   3.0 1.89e-01 1.65e-01f  1
 225r 2.1972322e+02 2.17e+00 8.24e+03  -0.5 3.65e-01   3.5 2.32e-02 1.66e-02h  1
 226r 2.1972322e+02 2.34e+00 3.57e+03  -0.5 1.63e-01   3.9 4.61e-01 5.99e-01h  1
 227r 2.1972322e+02 2.28e+00 2.60e+03  -0.5 3.83e-01   3.4 2.76e-01 2.54e-01f  1
 228r 2.1972322e+02 2.13e+00 2.27e+03  -0.5 1.21e+00   2.9 1.75e-02 1.22e-01f  1
 229r 2.1972322e+02 2.07e+00 2.24e+03  -0.5 3.98e+00   2.5 1.09e-01 1.12e-02f  1
iter    objective    inf_pr   inf_du lg(mu)  ||d||  lg(rg) alpha_du alpha_pr  ls
 230r 2.1972322e+02 1.68e+00 2.16e+03  -0.5 1.09e+01   2.0 2.78e-02 3.73e-02f  1
 231r 2.1972322e+02 1.46e+00 2.14e+03  -0.5 3.33e+01   1.5 5.91e-02 6.53e-03f  1
 232r 2.1972322e+02 1.07e+00 2.12e+03  -0.5 1.12e+02   1.0 3.36e-02 1.12e-02f  1
 233r 2.1972322e+02 1.06e+00 2.12e+03  -0.5 1.55e+02   0.5 5.29e-02 8.38e-05f  1
 234r 2.1972322e+02 1.33e+00 2.06e+03  -0.5 1.03e+01   0.1 9.98e-02 2.65e-02f  1
 235r 2.1972323e+02 1.26e+00 1.79e+03  -0.5 4.04e+00  -0.4 3.32e-01 1.34e-01f  1
 236r 2.1972316e+02 1.38e+00 1.03e+03  -0.5 9.51e+00  -0.9 5.33e-01 4.24e-01h  1
 237r 2.1972594e+02 1.38e+00 1.01e+03  -0.5 2.22e+03    -  2.09e-03 1.91e-02f  1
 238r 2.1972577e+02 1.38e+00 1.01e+03  -0.5 1.05e+03    -  3.07e-01 3.74e-03f  1
 239r 2.1971383e+02 1.40e+00 6.12e+02  -0.5 4.20e+02    -  3.92e-01 3.97e-01f  1
iter    objective    inf_pr   inf_du lg(mu)  ||d||  lg(rg) alpha_du alpha_pr  ls
 240r 2.1971383e+02 1.41e+00 2.15e+02  -0.5 2.96e-02   2.2 5.92e-01 6.44e-01h  1
 241r 2.1971383e+02 1.42e+00 5.24e+00  -0.5 2.49e-02   1.8 1.00e+00 1.00e+00h  1
 242r 2.1971465e+02 1.42e+00 1.00e+03  -1.2 3.35e+02    -  4.79e-01 2.05e-01f  1
 243r 2.1971465e+02 7.17e+00 1.36e+13  -1.2 2.52e+01   1.3 4.41e-03 3.82e-03f  1
WARNING: Problem in step computation; switching to emergency mode.
 244r 2.1971465e+02 7.17e+00 1.36e+13  -1.2 2.52e+01  19.0 0.00e+00 0.00e+00R  1
WARNING: Problem in step computation; switching to emergency mode.
Restoration phase is called at point that is almost feasible,
  with constraint violation 0.000000e+00. Abort.
Restoration phase in the restoration phase failed.

Number of Iterations....: 244

                                   (scaled)                 (unscaled)
Objective...............:   2.1971464725209827e+02    2.1971464725209827e+02
Dual infeasibility......:   1.3638522239032199e+13    1.3638522239032199e+13
Constraint violation....:   7.1656677769268686e+00    7.1656677769268686e+00
Complementarity.........:   2.7035219761243445e-01    2.7035219761243445e-01
Overall NLP error.......:   7.6633680798707832e+12    1.3638522239032199e+13


Number of objective function evaluations             = 789
Number of objective gradient evaluations             = 133
Number of equality constraint evaluations            = 791
Number of inequality constraint evaluations          = 0
Number of equality constraint Jacobian evaluations   = 257
Number of inequality constraint Jacobian evaluations = 0
Number of Lagrangian Hessian evaluations             = 245
Total CPU secs in IPOPT (w/o function evaluations)   =      0.729
Total CPU secs in NLP function evaluations           =      9.168

EXIT: Restoration Failed!
